tsp_instances/TSP50/instance97.tsp
NODE_COORD_SECTION
0 52 49
1 145 128
2 3 65
3 116 20
4 85 188
5 151 68
6 154 67
7 47 8
8 8 174
9 173 90
10 102 60
11 90 37
12 22 195
13 17 87
14 9 0
15 0 185
16 63 37
17 141 142
18 197 184
19 41 23
20 118 148
21 61 142
22 97 158
23 17 165
24 0 37
25 162 129
26 17 195
27 151 49
28 61 194
29 31 100
30 197 95
31 104 103
32 171 12
33 2 53
34 8 127
35 27 141
36 13 110
37 68 26
38 94 32
39 123 38
40 5 31
41 146 179
42 103 60
43 116 34
44 141 73
45 104 105
46 113 37
47 63 144
48 27 87
49 124 193
