tsp_instances/TSP50/instance97.opt.tour
TOUR_SECTION
1
17
38
39
12
43
11
47
44
40
4
33
28
7
6
45
32
46
22
48
23
21
18
2
26
10
31
19
42
50
5
29
13
27
16
9
24
36
35
37
30
49
14
3
34
25
41
15
8
20
-1